
Gurobi 6.5.2 (linux64) logging started Sun Sep 18 18:50:22 2016


Gurobi 6.5.2 (linux64) logging started Sun Sep 18 18:50:22 2016

Optimize a model with 201 rows, 3565 columns and 7233 nonzeros
Coefficient statistics:
  Matrix range    [1e+00, 2e+00]
  Objective range [1e+00, 1e+02]
  Bounds range    [1e+00, 1e+00]
  RHS range       [1e+00, 1e+00]
Presolve removed 70 rows and 38 columns
Presolve time: 0.02s
Presolved: 131 rows, 3527 columns, 7078 nonzeros
Variable types: 0 continuous, 3527 integer (3527 binary)

Root relaxation: objective 9.200000e+02, 151 iterations, 0.00 seconds

    Nodes    |    Current Node    |     Objective Bounds      |     Work
 Expl Unexpl |  Obj  Depth IntInf | Incumbent    BestBd   Gap | It/Node Time

     0     0  920.00000    0   10          -  920.00000      -     -    0s
     0     0  922.33333    0   15          -  922.33333      -     -    0s
     0     0  925.25000    0    5          -  925.25000      -     -    0s
     0     0  925.50000    0    6          -  925.50000      -     -    0s
     0     0  925.75000    0    5          -  925.75000      -     -    0s
     0     0  926.33333    0    8          -  926.33333      -     -    0s
     0     0  926.66667    0   12          -  926.66667      -     -    0s
     0     0  926.66667    0   12          -  926.66667      -     -    0s
     0     2  926.66667    0   12          -  926.66667      -     -    0s
* 1921  1770             372    1409.0000000  928.00000  34.1%   5.0    1s
  3603  2568  957.00000  117    8 1409.00000  931.00000  33.9%   6.2    5s
* 4543  2922             127    1275.0000000  931.00000  27.0%   6.2    5s
* 5736  3354             124    1258.0000000  931.22222  26.0%   6.0    6s
  7756  4507 1041.50000  126    8 1258.00000  931.78125  25.9%   5.7   10s

Cutting planes:
  Gomory: 13
  Cover: 12
  MIR: 2
  Flow cover: 3
  Zero half: 10
  Lazy constraints: 901

Explored 8428 nodes (47720 simplex iterations) in 10.08 seconds
Thread count was 8 (of 8 available processors)

Time limit reached
Best objective 1.258000000000e+03, best bound 9.320000000000e+02, gap 25.9141%
